DIMACS_lns/graph-1000-651.col
p edge 1000 1841
e 1 903
e 1 530
e 1 471
e 1 570
e 1 704
e 1 601
e 2 893
e 2 166
e 2 157
e 2 754
e 2 660
e 2 422
e 2 528
e 3 650
e 3 872
e 3 824
e 3 438
e 3 404
e 3 953
e 4 583
e 4 722
e 4 765
e 4 146
e 6 110
e 6 485
e 6 173
e 6 317
e 6 199
e 6 909
e 7 288
e 7 757
e 7 893
e 10 517
e 10 51
e 10 22
e 11 847
e 11 536
e 11 562
e 11 199
e 11 875
e 11 812
e 12 791
e 12 82
e 12 675
e 14 410
e 14 937
e 14 482
e 15 615
e 15 953
e 15 846
e 15 398
e 16 978
e 16 647
e 16 27
e 16 63
e 16 442
e 17 95
e 17 650
e 17 166
e 17 833
e 20 510
e 20 339
e 20 443
e 20 62
e 20 156
e 20 410
e 21 668
e 21 402
e 21 90
e 21 657
e 21 719
e 22 569
e 22 925
e 22 515
e 22 107
e 22 744
e 22 35
e 23 471
e 23 79
e 23 362
e 23 515
e 23 432
e 23 756
e 25 305
e 25 504
e 25 623
e 25 584
e 25 412
e 26 567
e 26 374
e 26 484
e 27 715
e 27 693
e 27 265
e 27 857
e 27 259
e 27 328
e 28 803
e 28 148
e 28 798
e 30 904
e 30 837
e 30 732
e 30 829
e 30 828
e 30 408
e 33 871
e 33 486
e 33 72
e 34 832
e 34 484
e 34 882
e 34 858
e 34 909
e 34 915
e 35 174
e 35 366
e 35 539
e 35 640
e 36 953
e 36 594
e 36 475
e 36 632
e 36 436
e 37 98
e 37 640
e 37 428
e 38 313
e 38 503
e 38 770
e 39 111
e 39 292
e 39 366
e 40 307
e 40 610
e 40 875
e 40 871
e 40 958
e 40 59
e 40 732
e 40 63
e 41 307
e 41 217
e 41 115
e 41 50
e 41 618
e 42 544
e 42 981
e 42 510
e 42 219
e 42 522
e 43 929
e 43 711
e 43 508
e 43 850
e 44 954
e 44 856
e 44 562
e 44 317
e 44 719
e 44 654
e 46 461
e 46 841
e 46 59
e 46 110
e 48 321
e 48 219
e 48 782
e 48 165
e 48 247
e 49 868
e 49 416
e 49 163
e 49 51
e 50 305
e 50 974
e 50 630
e 51 228
e 52 341
e 52 560
e 52 974
e 52 346
e 52 438
e 53 353
e 53 377
e 53 339
e 54 901
e 54 907
e 54 700
e 55 973
e 55 391
e 55 368
e 57 223
e 57 439
e 57 60
e 58 177
e 58 411
e 58 783
e 58 314
e 58 755
e 59 374
e 59 384
e 59 107
e 60 533
e 60 491
e 60 411
e 60 388
e 60 251
e 61 736
e 61 723
e 61 303
e 62 228
e 62 753
e 62 618
e 63 435
e 65 218
e 65 611
e 65 980
e 65 165
e 67 837
e 67 563
e 67 825
e 69 750
e 69 840
e 69 74
e 70 139
e 70 639
e 70 791
e 70 895
e 70 881
e 70 784
e 71 362
e 71 120
e 71 174
e 71 249
e 71 479
e 72 599
e 72 884
e 72 357
e 72 285
e 73 222
e 73 334
e 73 484
e 73 909
e 73 693
e 73 155
e 74 890
e 74 425
e 74 105
e 74 646
e 74 694
e 76 715
e 76 182
e 76 181
e 76 196
e 76 95
e 77 586
e 77 533
e 77 937
e 78 916
e 78 843
e 78 540
e 78 495
e 79 666
e 79 938
e 79 628
e 80 870
e 80 498
e 80 703
e 80 599
e 80 443
e 80 844
e 81 399
e 81 348
e 81 301
e 81 781
e 81 137
e 82 284
e 82 344
e 83 545
e 83 163
e 83 398
e 84 667
e 84 589
e 84 882
e 84 939
e 85 208
e 85 664
e 85 766
e 85 284
e 85 760
e 86 296
e 86 564
e 86 898
e 87 418
e 87 340
e 87 521
e 87 862
e 87 218
e 88 579
e 88 531
e 88 969
e 88 519
e 89 902
e 89 283
e 89 233
e 89 954
e 89 738
e 90 983
e 90 458
e 90 972
e 90 730
e 91 849
e 91 447
e 91 564
e 92 450
e 92 750
e 92 189
e 93 132
e 93 400
e 93 439
e 94 993
e 94 310
e 94 138
e 94 203
e 95 789
e 95 121
e 95 117
e 97 442
e 97 671
e 97 821
e 97 447
e 98 679
e 98 614
e 98 321
e 98 569
e 98 298
e 99 286
e 99 977
e 99 891
e 99 264
e 99 842
e 100 767
e 100 189
e 100 461
e 103 902
e 103 536
e 103 663
e 103 154
e 103 689
e 104 521
e 104 293
e 104 292
e 104 273
e 104 856
e 105 780
e 105 699
e 105 643
e 105 691
e 105 148
e 105 640
e 107 778
e 107 278
e 108 886
e 108 843
e 108 758
e 108 732
e 108 288
e 110 323
e 110 395
e 110 262
e 110 814
e 110 858
e 110 531
e 110 822
e 111 653
e 111 317
e 111 969
e 111 815
e 111 519
e 111 564
e 111 959
e 113 929
e 113 353
e 113 338
e 115 907
e 115 139
e 115 292
e 116 265
e 116 188
e 116 388
e 117 321
e 117 318
e 117 755
e 117 602
e 117 663
e 120 540
e 120 181
e 120 939
e 120 141
e 120 974
e 120 229
e 121 855
e 121 181
e 121 739
e 122 847
e 122 605
e 122 690
e 122 315
e 122 610
e 123 615
e 123 404
e 123 824
e 124 552
e 124 299
e 124 642
e 127 933
e 127 926
e 127 978
e 127 525
e 129 911
e 129 323
e 129 606
e 130 620
e 130 361
e 130 974
e 131 165
e 131 469
e 131 404
e 132 611
e 132 324
e 132 386
e 132 136
e 132 749
e 133 886
e 133 554
e 133 756
e 133 633
e 133 833
e 133 734
e 134 619
e 134 220
e 134 189
e 136 935
e 136 439
e 136 651
e 137 506
e 137 707
e 137 149
e 137 169
e 138 860
e 138 680
e 138 256
e 138 245
e 138 544
e 139 293
e 139 342
e 139 986
e 141 485
e 141 987
e 142 438
e 142 681
e 142 245
e 143 252
e 143 205
e 143 895
e 143 782
e 145 811
e 145 903
e 145 934
e 145 740
e 146 443
e 146 711
e 146 637
e 146 919
e 146 196
e 146 190
e 146 296
e 148 354
e 148 190
e 148 647
e 148 575
e 149 963
e 149 983
e 149 751
e 149 670
e 149 348
e 150 893
e 150 442
e 150 959
e 150 432
e 150 631
e 151 776
e 151 156
e 151 674
e 153 861
e 153 169
e 153 485
e 154 344
e 154 343
e 154 198
e 154 934
e 154 977
e 154 850
e 154 353
e 154 605
e 155 358
e 155 646
e 155 915
e 155 680
e 155 874
e 156 274
e 156 851
e 157 959
e 157 834
e 157 469
e 157 763
e 158 691
e 158 161
e 158 341
e 158 440
e 159 314
e 159 841
e 159 462
e 160 543
e 160 482
e 160 417
e 160 978
e 160 883
e 161 562
e 161 405
e 162 181
e 162 330
e 162 412
e 162 755
e 162 612
e 163 943
e 163 310
e 163 711
e 163 641
e 163 662
e 163 610
e 163 775
e 165 854
e 165 980
e 165 766
e 165 274
e 166 481
e 166 464
e 166 176
e 167 387
e 167 521
e 167 749
e 169 350
e 169 732
e 170 816
e 170 611
e 170 354
e 170 566
e 170 427
e 171 968
e 171 717
e 171 627
e 171 279
e 171 286
e 173 936
e 173 861
e 174 986
e 174 355
e 176 803
e 176 625
e 177 555
e 177 884
e 179 536
e 179 255
e 179 290
e 180 364
e 180 663
e 180 469
e 180 343
e 180 969
e 181 222
e 181 799
e 182 692
e 182 710
e 182 219
e 182 543
e 182 902
e 182 298
e 182 855
e 182 651
e 183 800
e 183 461
e 183 378
e 184 383
e 184 506
e 184 635
e 184 707
e 184 479
e 184 855
e 184 875
e 185 617
e 185 382
e 185 252
e 185 447
e 186 850
e 186 210
e 186 288
e 186 905
e 186 969
e 187 959
e 187 498
e 187 484
e 188 525
e 188 532
e 188 294
e 188 812
e 188 366
e 190 657
e 190 363
e 190 659
e 190 706
e 190 885
e 190 250
e 191 262
e 191 597
e 191 709
e 191 895
e 192 880
e 192 279
e 192 770
e 192 505
e 193 454
e 193 616
e 193 432
e 194 350
e 194 784
e 194 766
e 196 942
e 196 350
e 197 958
e 197 870
e 197 667
e 197 298
e 198 217
e 198 623
e 198 773
e 198 641
e 198 250
e 199 470
e 199 504
e 199 645
e 199 926
e 199 205
e 201 733
e 201 708
e 201 736
e 203 943
e 203 708
e 203 313
e 205 212
e 205 540
e 205 498
e 205 605
e 205 812
e 205 577
e 207 347
e 207 950
e 207 654
e 208 808
e 208 554
e 209 709
e 209 827
e 209 745
e 209 792
e 210 241
e 210 229
e 212 841
e 212 547
e 212 837
e 214 979
e 214 994
e 214 856
e 214 219
e 214 930
e 214 835
e 217 266
e 217 850
e 218 522
e 218 809
e 219 777
e 219 303
e 219 687
e 220 681
e 220 891
e 220 597
e 221 934
e 221 766
e 221 916
e 222 934
e 222 470
e 222 935
e 222 436
e 222 847
e 222 344
e 222 283
e 222 562
e 223 639
e 223 731
e 227 816
e 227 678
e 227 903
e 227 594
e 228 486
e 228 716
e 228 334
e 229 735
e 229 245
e 229 849
e 229 766
e 229 349
e 229 423
e 230 418
e 230 258
e 230 339
e 232 404
e 232 809
e 232 408
e 233 343
e 233 364
e 234 737
e 234 893
e 234 383
e 237 246
e 237 382
e 237 250
e 237 955
e 238 332
e 238 860
e 238 917
e 238 527
e 238 541
e 240 772
e 240 481
e 240 831
e 241 900
e 241 444
e 241 253
e 245 802
e 245 757
e 245 938
e 245 777
e 245 571
e 245 976
e 245 847
e 246 632
e 246 729
e 246 495
e 247 431
e 247 717
e 249 367
e 249 362
e 249 562
e 250 372
e 250 548
e 250 332
e 250 729
e 251 296
e 251 809
e 251 740
e 251 562
e 251 982
e 252 351
e 252 435
e 253 857
e 253 618
e 253 364
e 253 670
e 254 904
e 254 905
e 254 535
e 255 593
e 255 355
e 255 750
e 256 378
e 256 332
e 257 412
e 257 913
e 257 872
e 257 441
e 257 588
e 258 890
e 258 342
e 259 885
e 259 418
e 259 522
e 259 880
e 260 303
e 260 440
e 260 655
e 262 635
e 262 543
e 262 352
e 262 428
e 262 624
e 262 944
e 262 928
e 264 818
e 264 487
e 264 621
e 264 363
e 264 857
e 265 564
e 266 869
e 266 366
e 267 997
e 267 925
e 267 862
e 270 840
e 270 558
e 270 859
e 271 401
e 271 930
e 271 838
e 271 460
e 272 606
e 272 435
e 272 846
e 272 669
e 273 364
e 273 937
e 273 763
e 274 791
e 274 876
e 274 898
e 276 521
e 276 723
e 276 652
e 276 341
e 276 527
e 276 933
e 276 315
e 278 379
e 278 824
e 278 325
e 279 450
e 283 354
e 283 796
e 283 838
e 283 751
e 284 332
e 284 535
e 284 886
e 284 668
e 284 912
e 284 653
e 285 500
e 285 345
e 286 784
e 286 662
e 287 953
e 287 428
e 287 667
e 290 846
e 290 355
e 291 690
e 291 862
e 291 696
e 291 709
e 292 314
e 292 694
e 292 367
e 293 841
e 293 364
e 293 621
e 294 989
e 294 887
e 296 934
e 296 800
e 296 939
e 296 525
e 296 367
e 297 312
e 297 885
e 297 803
e 299 830
e 299 330
e 299 430
e 299 963
e 299 937
e 299 627
e 299 954
e 299 410
e 299 593
e 301 547
e 301 591
e 301 808
e 303 357
e 303 397
e 304 602
e 304 755
e 304 388
e 304 857
e 305 515
e 305 617
e 305 994
e 307 833
e 307 868
e 309 798
e 309 690
e 309 974
e 309 453
e 310 586
e 312 936
e 312 773
e 313 502
e 313 442
e 313 462
e 314 972
e 314 539
e 315 890
e 315 317
e 315 615
e 315 745
e 317 548
e 317 781
e 317 594
e 317 777
e 318 509
e 318 364
e 321 617
e 321 330
e 321 584
e 323 803
e 323 991
e 324 869
e 324 600
e 324 837
e 324 507
e 325 330
e 325 443
e 325 491
e 327 475
e 327 338
e 327 593
e 327 575
e 328 886
e 328 404
e 328 570
e 329 954
e 329 377
e 329 788
e 329 898
e 329 644
e 329 813
e 330 980
e 330 415
e 332 523
e 334 408
e 334 433
e 335 847
e 335 915
e 335 887
e 338 811
e 338 528
e 338 545
e 339 666
e 339 631
e 339 858
e 339 913
e 340 445
e 340 475
e 340 953
e 340 719
e 341 432
e 341 798
e 342 636
e 342 572
e 342 516
e 342 717
e 343 671
e 343 912
e 343 780
e 344 840
e 344 965
e 344 547
e 344 986
e 344 782
e 344 905
e 345 979
e 345 936
e 345 369
e 345 988
e 346 585
e 346 415
e 346 524
e 346 722
e 346 441
e 347 700
e 347 523
e 347 536
e 347 721
e 348 727
e 348 711
e 348 839
e 349 612
e 349 524
e 349 527
e 350 970
e 350 423
e 350 425
e 350 925
e 351 973
e 351 353
e 351 755
e 352 796
e 352 859
e 353 760
e 353 357
e 353 839
e 353 784
e 354 427
e 354 367
e 354 758
e 354 511
e 354 658
e 354 728
e 355 511
e 355 432
e 355 993
e 355 374
e 355 904
e 356 403
e 356 896
e 356 436
e 357 507
e 357 973
e 357 912
e 357 539
e 358 623
e 358 614
e 358 372
e 358 689
e 358 391
e 358 776
e 358 667
e 359 715
e 359 556
e 359 602
e 361 780
e 361 633
e 362 790
e 362 515
e 362 394
e 363 657
e 363 689
e 363 927
e 364 986
e 364 718
e 364 379
e 364 400
e 366 728
e 366 566
e 366 431
e 366 937
e 367 422
e 367 788
e 368 382
e 368 523
e 368 674
e 369 950
e 369 651
e 369 710
e 372 455
e 372 753
e 372 625
e 374 749
e 374 506
e 374 880
e 375 486
e 375 936
e 375 568
e 377 463
e 377 440
e 377 471
e 378 655
e 379 861
e 379 642
e 380 899
e 380 533
e 380 696
e 380 785
e 380 889
e 380 871
e 380 635
e 380 399
e 382 426
e 382 841
e 383 401
e 383 813
e 384 979
e 384 422
e 384 788
e 385 428
e 385 902
e 385 903
e 386 712
e 386 536
e 386 872
e 387 875
e 387 650
e 387 977
e 387 773
e 387 579
e 387 444
e 388 859
e 388 583
e 388 706
e 391 828
e 391 709
e 391 824
e 391 893
e 391 575
e 392 813
e 392 847
e 392 862
e 392 972
e 392 560
e 393 970
e 393 681
e 393 635
e 393 655
e 394 824
e 394 782
e 394 664
e 394 579
e 394 935
e 395 917
e 395 556
e 397 783
e 397 875
e 397 436
e 397 584
e 397 784
e 397 870
e 397 706
e 397 694
e 398 406
e 399 455
e 399 688
e 399 764
e 399 894
e 399 566
e 399 870
e 400 539
e 400 700
e 400 705
e 401 759
e 402 508
e 402 963
e 402 547
e 402 847
e 402 615
e 402 616
e 402 859
e 403 431
e 403 453
e 403 804
e 404 752
e 404 669
e 404 455
e 405 511
e 405 763
e 405 967
e 405 696
e 406 682
e 406 642
e 408 910
e 408 438
e 408 933
e 408 527
e 409 523
e 409 558
e 409 556
e 409 959
e 409 442
e 410 585
e 410 650
e 410 956
e 410 882
e 411 644
e 411 821
e 411 754
e 411 805
e 412 963
e 415 723
e 415 669
e 416 900
e 416 485
e 416 808
e 417 454
e 417 591
e 417 745
e 417 736
e 417 926
e 419 556
e 419 487
e 419 948
e 421 803
e 421 589
e 421 579
e 421 944
e 422 981
e 423 599
e 423 853
e 423 440
e 423 837
e 423 737
e 425 807
e 425 799
e 426 434
e 426 582
e 426 681
e 426 486
e 427 744
e 427 815
e 427 925
e 427 554
e 428 469
e 428 529
e 428 679
e 430 822
e 430 799
e 430 934
e 430 751
e 430 500
e 430 705
e 430 646
e 431 773
e 431 639
e 431 763
e 432 593
e 433 445
e 433 522
e 433 468
e 434 930
e 434 933
e 435 925
e 435 617
e 435 775
e 436 610
e 437 818
e 437 579
e 437 590
e 438 809
e 438 881
e 439 991
e 439 540
e 440 682
e 441 979
e 442 682
e 442 468
e 443 908
e 444 738
e 445 883
e 445 506
e 445 545
e 445 679
e 445 943
e 445 986
e 445 692
e 447 663
e 447 773
e 450 609
e 453 723
e 453 930
e 453 856
e 453 577
e 453 772
e 453 923
e 454 851
e 455 642
e 455 566
e 458 796
e 458 597
e 460 847
e 460 884
e 461 543
e 461 776
e 461 808
e 461 493
e 461 978
e 462 917
e 462 898
e 462 855
e 463 961
e 463 574
e 464 503
e 464 650
e 468 555
e 468 764
e 469 862
e 469 836
e 469 985
e 470 671
e 470 603
e 470 758
e 471 690
e 471 982
e 475 965
e 475 614
e 479 689
e 481 631
e 482 813
e 482 957
e 484 776
e 484 685
e 484 963
e 485 842
e 485 724
e 486 606
e 487 509
e 487 894
e 488 718
e 488 755
e 488 699
e 488 956
e 490 825
e 490 579
e 490 754
e 491 710
e 491 576
e 491 943
e 493 942
e 493 896
e 495 970
e 498 933
e 498 915
e 499 767
e 499 735
e 499 846
e 500 507
e 500 719
e 500 643
e 502 750
e 502 653
e 503 928
e 503 730
e 504 891
e 504 968
e 504 514
e 504 600
e 505 894
e 505 583
e 505 639
e 505 544
e 506 799
e 507 739
e 507 563
e 508 676
e 508 949
e 508 629
e 508 640
e 508 781
e 509 718
e 509 732
e 509 715
e 509 685
e 510 899
e 510 987
e 510 851
e 511 653
e 512 735
e 512 632
e 512 626
e 514 764
e 514 793
e 514 529
e 514 874
e 514 783
e 515 789
e 515 960
e 515 825
e 515 782
e 516 938
e 516 727
e 517 972
e 517 689
e 519 539
e 519 739
e 521 669
e 521 950
e 522 904
e 522 785
e 524 881
e 524 717
e 524 721
e 527 926
e 527 631
e 527 994
e 527 967
e 528 711
e 528 601
e 528 850
e 528 919
e 528 574
e 529 577
e 529 994
e 530 875
e 530 772
e 531 602
e 531 905
e 531 778
e 532 548
e 532 967
e 532 714
e 532 900
e 533 625
e 533 910
e 533 649
e 535 680
e 536 649
e 536 608
e 539 787
e 539 917
e 539 602
e 540 703
e 541 961
e 541 756
e 543 601
e 543 834
e 543 555
e 544 977
e 547 781
e 548 752
e 552 709
e 552 649
e 552 980
e 552 703
e 552 816
e 554 967
e 554 581
e 555 833
e 555 645
e 555 770
e 555 633
e 555 854
e 555 575
e 556 564
e 556 809
e 556 956
e 558 650
e 558 691
e 560 651
e 562 807
e 562 934
e 563 701
e 563 693
e 564 568
e 564 771
e 564 569
e 564 571
e 564 825
e 564 700
e 566 731
e 566 656
e 566 915
e 567 749
e 567 981
e 568 875
e 570 953
e 571 608
e 571 728
e 571 688
e 571 579
e 571 777
e 572 626
e 572 624
e 572 861
e 574 737
e 574 618
e 575 601
e 576 588
e 576 770
e 576 740
e 577 656
e 577 968
e 579 661
e 581 636
e 581 602
e 581 760
e 581 824
e 582 820
e 582 912
e 583 676
e 585 802
e 585 753
e 585 901
e 586 930
e 586 853
e 588 836
e 589 993
e 589 620
e 589 718
e 589 729
e 589 793
e 590 853
e 590 642
e 591 825
e 591 625
e 591 609
e 594 606
e 594 608
e 594 675
e 600 611
e 601 977
e 603 654
e 603 653
e 604 811
e 604 766
e 604 884
e 604 839
e 604 705
e 604 988
e 605 919
e 608 735
e 608 988
e 609 677
e 609 645
e 610 783
e 610 847
e 610 655
e 610 756
e 611 696
e 612 983
e 612 989
e 614 908
e 614 844
e 615 856
e 616 904
e 616 707
e 616 658
e 616 661
e 617 799
e 617 861
e 617 963
e 617 650
e 617 711
e 618 650
e 618 949
e 619 760
e 619 637
e 619 818
e 619 685
e 620 822
e 621 789
e 621 777
e 623 671
e 623 840
e 624 895
e 625 744
e 626 708
e 626 965
e 627 791
e 627 661
e 628 933
e 628 832
e 629 818
e 629 849
e 629 776
e 630 667
e 630 907
e 630 916
e 630 679
e 631 953
e 632 860
e 632 821
e 633 835
e 636 805
e 636 939
e 636 851
e 637 655
e 637 820
e 639 794
e 641 692
e 641 898
e 641 822
e 642 734
e 642 876
e 642 835
e 643 936
e 643 703
e 644 738
e 644 986
e 644 759
e 644 961
e 645 886
e 645 870
e 645 938
e 645 881
e 647 829
e 647 820
e 650 712
e 650 715
e 650 785
e 651 792
e 651 847
e 652 985
e 652 804
e 652 967
e 652 805
e 656 842
e 656 890
e 656 923
e 657 979
e 657 977
e 658 704
e 659 825
e 659 667
e 660 815
e 660 859
e 661 960
e 661 773
e 662 882
e 662 676
e 662 831
e 663 814
e 663 787
e 663 886
e 664 889
e 664 948
e 666 721
e 667 960
e 668 843
e 668 772
e 668 737
e 669 991
e 669 778
e 669 765
e 669 923
e 669 913
e 670 803
e 670 884
e 670 671
e 671 677
e 674 868
e 675 967
e 677 807
e 677 794
e 677 717
e 678 937
e 678 730
e 678 757
e 679 849
e 679 771
e 680 824
e 680 871
e 685 978
e 687 989
e 687 999
e 688 727
e 688 744
e 689 983
e 690 699
e 690 830
e 691 747
e 692 731
e 693 862
e 693 736
e 694 846
e 694 943
e 696 766
e 699 731
e 700 963
e 701 740
e 701 813
e 703 890
e 704 759
e 705 929
e 705 957
e 708 876
e 708 754
e 709 812
e 709 891
e 709 928
e 710 822
e 710 809
e 710 911
e 711 986
e 712 901
e 714 723
e 714 815
e 715 790
e 715 919
e 716 993
e 716 794
e 716 861
e 718 822
e 718 963
e 719 800
e 719 974
e 721 958
e 722 850
e 723 838
e 723 792
e 723 948
e 724 725
e 724 760
e 725 756
e 725 894
e 729 827
e 730 833
e 731 898
e 731 955
e 731 783
e 732 953
e 732 808
e 733 820
e 733 808
e 733 960
e 734 791
e 734 963
e 735 871
e 735 934
e 737 744
e 738 794
e 740 987
e 744 808
e 745 811
e 747 802
e 747 895
e 749 799
e 749 802
e 751 862
e 752 910
e 753 837
e 754 830
e 754 889
e 757 858
e 757 834
e 758 976
e 760 770
e 763 789
e 764 835
e 764 935
e 764 829
e 765 903
e 767 963
e 767 903
e 767 850
e 771 957
e 773 813
e 775 915
e 776 827
e 776 994
e 780 950
e 781 874
e 783 959
e 784 985
e 785 970
e 787 978
e 789 970
e 790 836
e 790 944
e 791 974
e 793 894
e 794 930
e 794 827
e 794 856
e 796 884
e 798 894
e 799 965
e 800 938
e 800 960
e 802 949
e 804 908
e 805 956
e 805 943
e 809 997
e 811 895
e 812 979
e 813 989
e 814 917
e 820 909
e 820 872
e 822 839
e 822 970
e 827 986
e 828 836
e 828 999
e 829 910
e 830 965
e 831 851
e 831 912
e 832 894
e 839 978
e 839 893
e 839 987
e 840 904
e 841 844
e 844 950
e 849 991
e 851 965
e 853 895
e 854 973
e 855 910
e 858 930
e 869 989
e 869 973
e 871 955
e 871 890
e 881 977
e 881 919
e 883 904
e 884 929
e 887 979
e 889 891
e 890 948
e 890 942
e 890 959
e 893 982
e 896 988
e 896 955
e 899 999
e 900 948
e 904 961
e 907 927
e 910 915
e 910 963
e 911 937
e 913 978
e 923 933
e 927 961
e 929 955
e 935 950
e 961 999
e 963 970
e 974 977
e 976 997
e 978 980
e 979 991
